PROBLEM NAME: small_2_Uncorrelated_n14_m39_c5
KNAPSACK DATA TYPE:
DIMENSION: 14
NUMBER OF ITEMS: 39
CAPACITY OF KNAPSACK: 8285
MIN SPEED: 0.1
MAX SPEED: 1.0
RENTING RATIO: 1.0
EDGE_WEIGHT_TYPE: CEIL_2D
NODE_COORD_SECTION	(INDEX, X, Y): 
1	29	165
2	436	810
3	374	560
4	878	689
5	84	133
6	473	917
7	319	159
8	774	788
9	140	663
10	318	349
11	603	464
12	60	112
13	924	100
14	868	850
ITEMS SECTION	(INDEX, PROFIT, WEIGHT, ASSIGNED NODE NUMBER): 
1	931	50	2
2	793	621	2
3	228	771	2
4	20	353	3
5	21	554	3
6	458	307	3
7	740	36	4
8	351	899	4
9	115	900	4
10	544	862	5
11	646	208	5
12	792	458	5
13	962	173	6
14	794	752	6
15	986	460	6
16	534	916	7
17	777	164	7
18	409	133	7
19	467	96	8
20	277	525	8
21	14	577	8
22	526	505	9
23	254	900	9
24	719	255	9
25	844	54	10
26	503	390	10
27	16	132	10
28	111	56	11
29	385	647	11
30	350	168	11
31	455	243	12
32	526	991	12
33	336	740	12
34	469	816	13
35	251	434	13
36	873	397	13
37	45	13	14
38	961	850	14
39	893	822	14
